1, 19, 33, 34, 29, 28, 27, 21, 30, 22, 53, 52, 15, 1
1, 20, 38, 40, 41, 49, 48, 50, 51, 43, 42, 39, 35, 1
1, 14, 16, 4, 6, 5, 9, 12, 11, 10, 13, 8, 7, 3, 2, 18, 1
1, 17, 26, 23, 25, 44, 45, 46, 47, 37, 24, 32, 31, 36, 1
